NAME profit_maximization
OBJSENSE MAX
ROWS
 N  OBJ
 G  Fraction_lower_bound_0
 L  Fraction_upper_bound_0
 E  R2      
 E  R3      
 E  R4      
 E  R5      
 E  R6      
 E  R7      
 E  R8      
 E  R9      
 G  Fraction_lower_bound_1
 L  Fraction_upper_bound_1
 E  R12     
 E  R13     
 E  R14     
 E  R15     
 E  R16     
 E  R17     
 E  R18     
 E  R19     
 G  Fraction_lower_bound_2
 L  Fraction_upper_bound_2
 E  R22     
 E  R23     
 E  R24     
 E  R25     
 E  R26     
 E  R27     
 E  R28     
 E  R29     
 G  Fraction_lower_bound_3
 L  Fraction_upper_bound_3
 E  R32     
 E  R33     
 E  R34     
 E  R35     
 E  R36     
 E  R37     
 E  R38     
 E  R39     
 G  Fraction_lower_bound_4
 L  Fraction_upper_bound_4
 E  R42     
 E  R43     
 E  R44     
 E  R45     
 E  R46     
 E  R47     
 E  R48     
 E  R49     
 G  Fraction_lower_bound_5
 L  Fraction_upper_bound_5
 E  R52     
 E  R53     
 E  R54     
 E  R55     
 E  R56     
 E  R57     
 E  R58     
 E  R59     
 G  Fraction_lower_bound_6
 L  Fraction_upper_bound_6
 E  R62     
 E  R63     
 E  R64     
 E  R65     
 E  R66     
 E  R67     
 E  R68     
 E  R69     
 G  Fraction_lower_bound_7
 L  Fraction_upper_bound_7
 E  R72     
 E  R73     
 E  R74     
 E  R75     
 E  R76     
 E  R77     
 E  R78     
 E  R79     
 G  Fraction_lower_bound_8
 L  Fraction_upper_bound_8
 E  R82     
 E  R83     
 E  R84     
 E  R85     
 E  R86     
 E  R87     
 E  R88     
 E  R89     
 G  Fraction_lower_bound_9
 L  Fraction_upper_bound_9
 E  R92     
 E  R93     
 E  R94     
 E  R95     
 E  R96     
 E  R97     
 E  R98     
 E  R99     
COLUMNS
    alphas[0]  R2        3.6293707923432733e-01
    alphas[0]  R12       -5.3895183596197216e-01
    alphas[0]  R22       7.0486053297340256e-02
    alphas[0]  R32       3.8424253080778736e-01
    alphas[0]  R42       1.0413963620276778e+00
    alphas[0]  R52       -1.6331669325722953e-01
    alphas[0]  R62       9.6587165735388625e-01
    alphas[0]  R72       -1.4961749579860866e+00
    alphas[0]  R82       -1.8858743798480926e+00
    alphas[0]  R92       1.2593841843323541e+00
    alphas[1]  R2        -1.3808164390252364e+00
    alphas[1]  R12       -7.5877443341021311e-01
    alphas[1]  R22       4.1168643735528387e-01
    alphas[1]  R32       -6.9420140228516336e-01
    alphas[1]  R42       1.60130056329161
    alphas[1]  R52       -2.0682657276395364e-01
    alphas[1]  R62       1.5143724198189312e+00
    alphas[1]  R72       -1.2631412208572135e+00
    alphas[1]  R82       2.0243604677953903e-01
    alphas[1]  R92       5.7396460109641445e-01
    alphas[2]  R2        1.4560175885474622e-01
    alphas[2]  R12       -2.1254259408930989e-01
    alphas[2]  R22       -1.4164547099595646e+00
    alphas[2]  R32       1.5282218283962843e+00
    alphas[2]  R42       -1.2738674879153975e+00
    alphas[2]  R52       -1.29175138263669
    alphas[2]  R62       8.3452856286716570e-01
    alphas[2]  R72       1.2108388761392943e+00
    alphas[2]  R82       3.4923974126764379e-01
    alphas[2]  R92       1.2618540707583120e-01
    alphas[3]  R2        6.5080250756867930e-01
    alphas[3]  R12       8.1799045229657663e-01
    alphas[3]  R22       -1.0603519561337145e+00
    alphas[3]  R32       7.2231838786461422e-01
    alphas[3]  R42       5.2139670036076191e-01
    alphas[3]  R52       -7.0856260342124416e-02
    alphas[3]  R62       -1.62687302729598
    alphas[3]  R72       8.6365884886005129e-01
    alphas[3]  R82       -1.6851948435661048e+00
    alphas[3]  R92       0.867109190387246
    alphas[4]  R2        -1
    alphas[4]  R12       -1
    alphas[4]  R22       -1
    alphas[4]  R32       -1
    alphas[4]  R42       -1
    alphas[4]  R52       -1
    alphas[4]  R62       -1
    alphas[4]  R72       -1
    alphas[4]  R82       -1
    alphas[4]  R92       -1
    Sold_0[0]  R6        1
    Sold_0[0]  R9        -500
    Sold_0[1]  R16       1
    Sold_0[1]  R19       -500
    Sold_0[2]  R26       1
    Sold_0[2]  R29       -500
    Sold_0[3]  R36       1
    Sold_0[3]  R39       -500
    Sold_0[4]  R46       1
    Sold_0[4]  R49       -500
    Sold_0[5]  R56       1
    Sold_0[5]  R59       -500
    Sold_0[6]  R66       1
    Sold_0[6]  R69       -500
    Sold_0[7]  R76       1
    Sold_0[7]  R79       -500
    Sold_0[8]  R86       1
    Sold_0[8]  R89       -500
    Sold_0[9]  R96       1
    Sold_0[9]  R99       -500
    Sold_1[0]  R8        1
    Sold_1[0]  R9        -500
    Sold_1[1]  R18       1
    Sold_1[1]  R19       -500
    Sold_1[2]  R28       1
    Sold_1[2]  R29       -500
    Sold_1[3]  R38       1
    Sold_1[3]  R39       -500
    Sold_1[4]  R48       1
    Sold_1[4]  R49       -500
    Sold_1[5]  R58       1
    Sold_1[5]  R59       -500
    Sold_1[6]  R68       1
    Sold_1[6]  R69       -500
    Sold_1[7]  R78       1
    Sold_1[7]  R79       -500
    Sold_1[8]  R88       1
    Sold_1[8]  R89       -500
    Sold_1[9]  R98       1
    Sold_1[9]  R99       -500
    Lost_0[0]  R9        500
    Lost_0[1]  R19       500
    Lost_0[2]  R29       500
    Lost_0[3]  R39       500
    Lost_0[4]  R49       500
    Lost_0[5]  R59       500
    Lost_0[6]  R69       500
    Lost_0[7]  R79       500
    Lost_0[8]  R89       500
    Lost_0[9]  R99       500
    Lost_1[0]  R9        500
    Lost_1[1]  R19       500
    Lost_1[2]  R29       500
    Lost_1[3]  R39       500
    Lost_1[4]  R49       500
    Lost_1[5]  R59       500
    Lost_1[6]  R69       500
    Lost_1[7]  R79       500
    Lost_1[8]  R89       500
    Lost_1[9]  R99       500
    Left_1[0]  R8        1
    Left_1[0]  R9        500
    Left_1[1]  R18       1
    Left_1[1]  R19       500
    Left_1[2]  R28       1
    Left_1[2]  R29       500
    Left_1[3]  R38       1
    Left_1[3]  R39       500
    Left_1[4]  R48       1
    Left_1[4]  R49       500
    Left_1[5]  R58       1
    Left_1[5]  R59       500
    Left_1[6]  R68       1
    Left_1[6]  R69       500
    Left_1[7]  R78       1
    Left_1[7]  R79       500
    Left_1[8]  R88       1
    Left_1[8]  R89       500
    Left_1[9]  R98       1
    Left_1[9]  R99       500
    f_var[0]  R2        1
    f_var[1]  R12       1
    f_var[2]  R22       1
    f_var[3]  R32       1
    f_var[4]  R42       1
    f_var[5]  R52       1
    f_var[6]  R62       1
    f_var[7]  R72       1
    f_var[8]  R82       1
    f_var[9]  R92       1
    Fraction[0]  Fraction_lower_bound_0  1
    Fraction[0]  Fraction_upper_bound_0  1
    Fraction[0]  R3        -1.4532525179081586e+03
    Fraction[1]  Fraction_lower_bound_1  1
    Fraction[1]  Fraction_upper_bound_1  1
    Fraction[1]  R13       -1.4532525179081586e+03
    Fraction[2]  Fraction_lower_bound_2  1
    Fraction[2]  Fraction_upper_bound_2  1
    Fraction[2]  R23       -1.4532525179081586e+03
    Fraction[3]  Fraction_lower_bound_3  1
    Fraction[3]  Fraction_upper_bound_3  1
    Fraction[3]  R33       -1.4532525179081586e+03
    Fraction[4]  Fraction_lower_bound_4  1
    Fraction[4]  Fraction_upper_bound_4  1
    Fraction[4]  R43       -1.4532525179081586e+03
    Fraction[5]  Fraction_lower_bound_5  1
    Fraction[5]  Fraction_upper_bound_5  1
    Fraction[5]  R53       -1.4532525179081586e+03
    Fraction[6]  Fraction_lower_bound_6  1
    Fraction[6]  Fraction_upper_bound_6  1
    Fraction[6]  R63       -1.4532525179081586e+03
    Fraction[7]  Fraction_lower_bound_7  1
    Fraction[7]  Fraction_upper_bound_7  1
    Fraction[7]  R73       -1.4532525179081586e+03
    Fraction[8]  Fraction_lower_bound_8  1
    Fraction[8]  Fraction_upper_bound_8  1
    Fraction[8]  R83       -1.4532525179081586e+03
    Fraction[9]  Fraction_lower_bound_9  1
    Fraction[9]  Fraction_upper_bound_9  1
    Fraction[9]  R93       -1.4532525179081586e+03
    Q0_var[0]  R3        1
    Q0_var[0]  R4        1
    Q0_var[0]  R5        1
    Q0_var[0]  R6        -1
    Q0_var[1]  R13       1
    Q0_var[1]  R14       1
    Q0_var[1]  R15       1
    Q0_var[1]  R16       -1
    Q0_var[2]  R23       1
    Q0_var[2]  R24       1
    Q0_var[2]  R25       1
    Q0_var[2]  R26       -1
    Q0_var[3]  R33       1
    Q0_var[3]  R34       1
    Q0_var[3]  R35       1
    Q0_var[3]  R36       -1
    Q0_var[4]  R43       1
    Q0_var[4]  R44       1
    Q0_var[4]  R45       1
    Q0_var[4]  R46       -1
    Q0_var[5]  R53       1
    Q0_var[5]  R54       1
    Q0_var[5]  R55       1
    Q0_var[5]  R56       -1
    Q0_var[6]  R63       1
    Q0_var[6]  R64       1
    Q0_var[6]  R65       1
    Q0_var[6]  R66       -1
    Q0_var[7]  R73       1
    Q0_var[7]  R74       1
    Q0_var[7]  R75       1
    Q0_var[7]  R76       -1
    Q0_var[8]  R83       1
    Q0_var[8]  R84       1
    Q0_var[8]  R85       1
    Q0_var[8]  R86       -1
    Q0_var[9]  R93       1
    Q0_var[9]  R94       1
    Q0_var[9]  R95       1
    Q0_var[9]  R96       -1
    Q1_var[0]  R6        -1
    Q1_var[1]  R16       -1
    Q1_var[2]  R26       -1
    Q1_var[3]  R36       -1
    Q1_var[4]  R46       -1
    Q1_var[5]  R56       -1
    Q1_var[6]  R66       -1
    Q1_var[7]  R76       -1
    Q1_var[8]  R86       -1
    Q1_var[9]  R96       -1
    profits_vars[0]  OBJ       1
    profits_vars[0]  R9        1
    profits_vars[1]  OBJ       1
    profits_vars[1]  R19       1
    profits_vars[2]  OBJ       1
    profits_vars[2]  R29       1
    profits_vars[3]  OBJ       1
    profits_vars[3]  R39       1
    profits_vars[4]  OBJ       1
    profits_vars[4]  R49       1
    profits_vars[5]  OBJ       1
    profits_vars[5]  R59       1
    profits_vars[6]  OBJ       1
    profits_vars[6]  R69       1
    profits_vars[7]  OBJ       1
    profits_vars[7]  R79       1
    profits_vars[8]  OBJ       1
    profits_vars[8]  R89       1
    profits_vars[9]  OBJ       1
    profits_vars[9]  R99       1
    Lost_0_expr_0  R4        1
    Q_hat_adjusted_0  R5        1
    total_stock_second_period_0  R6        1
    total_stock_second_period_0  R7        1
    total_stock_second_period_0  R8        -1
    Lost_1_expr_0  R7        1
    Lost_0_expr_1  R14       1
    Q_hat_adjusted_1  R15       1
    total_stock_second_period_1  R16       1
    total_stock_second_period_1  R17       1
    total_stock_second_period_1  R18       -1
    Lost_1_expr_1  R17       1
    Lost_0_expr_2  R24       1
    Q_hat_adjusted_2  R25       1
    total_stock_second_period_2  R26       1
    total_stock_second_period_2  R27       1
    total_stock_second_period_2  R28       -1
    Lost_1_expr_2  R27       1
    Lost_0_expr_3  R34       1
    Q_hat_adjusted_3  R35       1
    total_stock_second_period_3  R36       1
    total_stock_second_period_3  R37       1
    total_stock_second_period_3  R38       -1
    Lost_1_expr_3  R37       1
    Lost_0_expr_4  R44       1
    Q_hat_adjusted_4  R45       1
    total_stock_second_period_4  R46       1
    total_stock_second_period_4  R47       1
    total_stock_second_period_4  R48       -1
    Lost_1_expr_4  R47       1
    Lost_0_expr_5  R54       1
    Q_hat_adjusted_5  R55       1
    total_stock_second_period_5  R56       1
    total_stock_second_period_5  R57       1
    total_stock_second_period_5  R58       -1
    Lost_1_expr_5  R57       1
    Lost_0_expr_6  R64       1
    Q_hat_adjusted_6  R65       1
    total_stock_second_period_6  R66       1
    total_stock_second_period_6  R67       1
    total_stock_second_period_6  R68       -1
    Lost_1_expr_6  R67       1
    Lost_0_expr_7  R74       1
    Q_hat_adjusted_7  R75       1
    total_stock_second_period_7  R76       1
    total_stock_second_period_7  R77       1
    total_stock_second_period_7  R78       -1
    Lost_1_expr_7  R77       1
    Lost_0_expr_8  R84       1
    Q_hat_adjusted_8  R85       1
    total_stock_second_period_8  R86       1
    total_stock_second_period_8  R87       1
    total_stock_second_period_8  R88       -1
    Lost_1_expr_8  R87       1
    Lost_0_expr_9  R94       1
    Q_hat_adjusted_9  R95       1
    total_stock_second_period_9  R96       1
    total_stock_second_period_9  R97       1
    total_stock_second_period_9  R98       -1
    Lost_1_expr_9  R97       1
RHS
    RHS1      Fraction_upper_bound_0  1
    RHS1      R4        1.0689936023073919e+03
    RHS1      R5        1.3487475525611076e+03
    RHS1      R7        2.7975395028689445e+02
    RHS1      Fraction_upper_bound_1  1
    RHS1      R14       1.0520961348481455e+03
    RHS1      R15       1.3706121117695120e+03
    RHS1      R17       3.1851597689967070e+02
    RHS1      Fraction_upper_bound_2  1
    RHS1      R24       1.5327853211296608e+03
    RHS1      R25       1.9816009190455054e+03
    RHS1      R27       4.4881559796363246e+02
    RHS1      Fraction_upper_bound_3  1
    RHS1      R34       6.3328128225624471e+02
    RHS1      R35       7.6339401804270938e+02
    RHS1      R37       1.3011273579550885e+02
    RHS1      Fraction_upper_bound_4  1
    RHS1      R44       2.1994163545614774e+03
    RHS1      R45       2.6327997123398336e+03
    RHS1      R47       4.3338335772283386e+02
    RHS1      Fraction_upper_bound_5  1
    RHS1      R54       1.7566338214959526e+03
    RHS1      R55       2.1919527563028055e+03
    RHS1      R57       4.3531893480907968e+02
    RHS1      Fraction_upper_bound_6  1
    RHS1      R64       9.4280412801212094e+02
    RHS1      R65       1.1479954084666251e+03
    RHS1      R67       2.0519128053692049e+02
    RHS1      Fraction_upper_bound_7  1
    RHS1      R74       4.6960819393279326e+02
    RHS1      R75       6.3407134280499065e+02
    RHS1      R77       1.6446314884081048e+02
    RHS1      Fraction_upper_bound_8  1
    RHS1      R84       8.7088686385283540e+02
    RHS1      R85       1.1286010394372724e+03
    RHS1      R87       2.5771417546209193e+02
    RHS1      Fraction_upper_bound_9  1
    RHS1      R94       1.0508949328962069e+03
    RHS1      R95       1.3327503183208551e+03
    RHS1      R97       2.8185538547131131e+02
BOUNDS
 FR BND1      alphas[0]
 FR BND1      alphas[1]
 FR BND1      alphas[2]
 FR BND1      alphas[3]
 FR BND1      alphas[4]
 FR BND1      f_var[0]
 FR BND1      f_var[1]
 FR BND1      f_var[2]
 FR BND1      f_var[3]
 FR BND1      f_var[4]
 FR BND1      f_var[5]
 FR BND1      f_var[6]
 FR BND1      f_var[7]
 FR BND1      f_var[8]
 FR BND1      f_var[9]
 UP BND1      Fraction[0]  1
 UP BND1      Fraction[1]  1
 UP BND1      Fraction[2]  1
 UP BND1      Fraction[3]  1
 UP BND1      Fraction[4]  1
 UP BND1      Fraction[5]  1
 UP BND1      Fraction[6]  1
 UP BND1      Fraction[7]  1
 UP BND1      Fraction[8]  1
 UP BND1      Fraction[9]  1
 UP BND1      Q0_var[0]  1.4542525179081586e+03
 UP BND1      Q0_var[1]  1.4542525179081586e+03
 UP BND1      Q0_var[2]  1.4542525179081586e+03
 UP BND1      Q0_var[3]  1.4542525179081586e+03
 UP BND1      Q0_var[4]  1.4542525179081586e+03
 UP BND1      Q0_var[5]  1.4542525179081586e+03
 UP BND1      Q0_var[6]  1.4542525179081586e+03
 UP BND1      Q0_var[7]  1.4542525179081586e+03
 UP BND1      Q0_var[8]  1.4542525179081586e+03
 UP BND1      Q0_var[9]  1.4542525179081586e+03
 FR BND1      profits_vars[0]
 FR BND1      profits_vars[1]
 FR BND1      profits_vars[2]
 FR BND1      profits_vars[3]
 FR BND1      profits_vars[4]
 FR BND1      profits_vars[5]
 FR BND1      profits_vars[6]
 FR BND1      profits_vars[7]
 FR BND1      profits_vars[8]
 FR BND1      profits_vars[9]
 FR BND1      Lost_0_expr_0
 FR BND1      Q_hat_adjusted_0
 FR BND1      Lost_1_expr_0
 FR BND1      Lost_0_expr_1
 FR BND1      Q_hat_adjusted_1
 FR BND1      Lost_1_expr_1
 FR BND1      Lost_0_expr_2
 FR BND1      Q_hat_adjusted_2
 FR BND1      Lost_1_expr_2
 FR BND1      Lost_0_expr_3
 FR BND1      Q_hat_adjusted_3
 FR BND1      Lost_1_expr_3
 FR BND1      Lost_0_expr_4
 FR BND1      Q_hat_adjusted_4
 FR BND1      Lost_1_expr_4
 FR BND1      Lost_0_expr_5
 FR BND1      Q_hat_adjusted_5
 FR BND1      Lost_1_expr_5
 FR BND1      Lost_0_expr_6
 FR BND1      Q_hat_adjusted_6
 FR BND1      Lost_1_expr_6
 FR BND1      Lost_0_expr_7
 FR BND1      Q_hat_adjusted_7
 FR BND1      Lost_1_expr_7
 FR BND1      Lost_0_expr_8
 FR BND1      Q_hat_adjusted_8
 FR BND1      Lost_1_expr_8
 FR BND1      Lost_0_expr_9
 FR BND1      Q_hat_adjusted_9
 FR BND1      Lost_1_expr_9
GENCONS
 LOGISTIC GC0
    Options  0  0.01  0.001  -1  -1
    f_var[0]  Fraction[0]
 MIN min_sales_constr_0
    Sold_0[0]
    Q0_var[0]
    1.0689936023073919e+03
 MAX max_lost_constr_0
    Lost_0[0]
    Lost_0_expr_0
    0
 MAX max_Q1_constr_0
    Q1_var[0]
    Q_hat_adjusted_0
    0
 MIN min_sales2_constr_0
    Sold_1[0]
    total_stock_second_period_0
    2.7975395028689445e+02
 MAX max_lost2_constr_0
    Lost_1[0]
    Lost_1_expr_0
    0
 LOGISTIC GC6
    Options  0  0.01  0.001  -1  -1
    f_var[1]  Fraction[1]
 MIN min_sales_constr_1
    Sold_0[1]
    Q0_var[1]
    1.0520961348481455e+03
 MAX max_lost_constr_1
    Lost_0[1]
    Lost_0_expr_1
    0
 MAX max_Q1_constr_1
    Q1_var[1]
    Q_hat_adjusted_1
    0
 MIN min_sales2_constr_1
    Sold_1[1]
    total_stock_second_period_1
    3.1851597689967070e+02
 MAX max_lost2_constr_1
    Lost_1[1]
    Lost_1_expr_1
    0
 LOGISTIC GC12
    Options  0  0.01  0.001  -1  -1
    f_var[2]  Fraction[2]
 MIN min_sales_constr_2
    Sold_0[2]
    Q0_var[2]
    1.5327853211296608e+03
 MAX max_lost_constr_2
    Lost_0[2]
    Lost_0_expr_2
    0
 MAX max_Q1_constr_2
    Q1_var[2]
    Q_hat_adjusted_2
    0
 MIN min_sales2_constr_2
    Sold_1[2]
    total_stock_second_period_2
    4.4881559796363246e+02
 MAX max_lost2_constr_2
    Lost_1[2]
    Lost_1_expr_2
    0
 LOGISTIC GC18
    Options  0  0.01  0.001  -1  -1
    f_var[3]  Fraction[3]
 MIN min_sales_constr_3
    Sold_0[3]
    Q0_var[3]
    6.3328128225624471e+02
 MAX max_lost_constr_3
    Lost_0[3]
    Lost_0_expr_3
    0
 MAX max_Q1_constr_3
    Q1_var[3]
    Q_hat_adjusted_3
    0
 MIN min_sales2_constr_3
    Sold_1[3]
    total_stock_second_period_3
    1.3011273579550885e+02
 MAX max_lost2_constr_3
    Lost_1[3]
    Lost_1_expr_3
    0
 LOGISTIC GC24
    Options  0  0.01  0.001  -1  -1
    f_var[4]  Fraction[4]
 MIN min_sales_constr_4
    Sold_0[4]
    Q0_var[4]
    2.1994163545614774e+03
 MAX max_lost_constr_4
    Lost_0[4]
    Lost_0_expr_4
    0
 MAX max_Q1_constr_4
    Q1_var[4]
    Q_hat_adjusted_4
    0
 MIN min_sales2_constr_4
    Sold_1[4]
    total_stock_second_period_4
    4.3338335772283386e+02
 MAX max_lost2_constr_4
    Lost_1[4]
    Lost_1_expr_4
    0
 LOGISTIC GC30
    Options  0  0.01  0.001  -1  -1
    f_var[5]  Fraction[5]
 MIN min_sales_constr_5
    Sold_0[5]
    Q0_var[5]
    1.7566338214959526e+03
 MAX max_lost_constr_5
    Lost_0[5]
    Lost_0_expr_5
    0
 MAX max_Q1_constr_5
    Q1_var[5]
    Q_hat_adjusted_5
    0
 MIN min_sales2_constr_5
    Sold_1[5]
    total_stock_second_period_5
    4.3531893480907968e+02
 MAX max_lost2_constr_5
    Lost_1[5]
    Lost_1_expr_5
    0
 LOGISTIC GC36
    Options  0  0.01  0.001  -1  -1
    f_var[6]  Fraction[6]
 MIN min_sales_constr_6
    Sold_0[6]
    Q0_var[6]
    9.4280412801212094e+02
 MAX max_lost_constr_6
    Lost_0[6]
    Lost_0_expr_6
    0
 MAX max_Q1_constr_6
    Q1_var[6]
    Q_hat_adjusted_6
    0
 MIN min_sales2_constr_6
    Sold_1[6]
    total_stock_second_period_6
    2.0519128053692049e+02
 MAX max_lost2_constr_6
    Lost_1[6]
    Lost_1_expr_6
    0
 LOGISTIC GC42
    Options  0  0.01  0.001  -1  -1
    f_var[7]  Fraction[7]
 MIN min_sales_constr_7
    Sold_0[7]
    Q0_var[7]
    4.6960819393279326e+02
 MAX max_lost_constr_7
    Lost_0[7]
    Lost_0_expr_7
    0
 MAX max_Q1_constr_7
    Q1_var[7]
    Q_hat_adjusted_7
    0
 MIN min_sales2_constr_7
    Sold_1[7]
    total_stock_second_period_7
    1.6446314884081048e+02
 MAX max_lost2_constr_7
    Lost_1[7]
    Lost_1_expr_7
    0
 LOGISTIC GC48
    Options  0  0.01  0.001  -1  -1
    f_var[8]  Fraction[8]
 MIN min_sales_constr_8
    Sold_0[8]
    Q0_var[8]
    8.7088686385283540e+02
 MAX max_lost_constr_8
    Lost_0[8]
    Lost_0_expr_8
    0
 MAX max_Q1_constr_8
    Q1_var[8]
    Q_hat_adjusted_8
    0
 MIN min_sales2_constr_8
    Sold_1[8]
    total_stock_second_period_8
    2.5771417546209193e+02
 MAX max_lost2_constr_8
    Lost_1[8]
    Lost_1_expr_8
    0
 LOGISTIC GC54
    Options  0  0.01  0.001  -1  -1
    f_var[9]  Fraction[9]
 MIN min_sales_constr_9
    Sold_0[9]
    Q0_var[9]
    1.0508949328962069e+03
 MAX max_lost_constr_9
    Lost_0[9]
    Lost_0_expr_9
    0
 MAX max_Q1_constr_9
    Q1_var[9]
    Q_hat_adjusted_9
    0
 MIN min_sales2_constr_9
    Sold_1[9]
    total_stock_second_period_9
    2.8185538547131131e+02
 MAX max_lost2_constr_9
    Lost_1[9]
    Lost_1_expr_9
    0
ENDATA
